Minimize
  + 38.64150455680154 Constant
Subject To
 R2: (robot_init_pose-value-(1,_0)) = 1
 R13: (pr2-pose-(1,_0)) = -0.424262627173106
 R17: - (robot_init_pose-value-(1,_0)) + (pr2-pose-(1,_0)) = 0
Bounds
 (robot_init_pose-value-(1,_0)) free
 (pr2-pose-(1,_0)) free
 Constant = 1
End
